    14
 Wannier centres, written by Wannier90 on10Apr2026 at 21:01:57 
X         -0.00000002       1.88988358       9.99999995
X         -0.00000001       1.84197722       9.99999987
X         -0.00000003       1.93416286       9.99999993
X          0.00000002       1.76841063       9.99999998
X         -0.00000002       2.00449253       9.99999995
X          1.63500000       0.94551453      11.76625552
X          1.63500001       0.95667393      11.63299496
X          1.63499999       0.93004643      11.63302383
X          1.63500000       0.94551456       8.23374437
X          1.63499988       0.95667400       8.36700493
X          1.63499998       0.93004642       8.36697607
mo        -0.00000000       1.88793537       9.99999996
se         1.63499999       0.94396769      11.66999995
se         1.63499999       0.94396769       8.32999996
