    14
 Wannier centres, written by Wannier90 on11Apr2026 at 15:26:57 
X         -0.00000002       2.03286714      10.00182499
X         -0.00000000       1.96323638      10.00182497
X          0.00000003       2.10086325      10.00182505
X         -0.00000000       1.89423372      10.00182501
X         -0.00000002       2.16740553      10.00182498
X          1.75964535       1.01772049      11.85948473
X          1.75964510       1.03387727      11.66035486
X          1.75964502       0.99651026      11.66038795
X          1.75964508       1.01772050       8.14416495
X          1.75964524       1.03387725       8.34329521
X          1.75964537       0.99651024       8.34326213
mo        -0.00000000       2.03186325      10.00182502
te         1.75964519       1.01593162      11.71113691
te         1.75964519       1.01593162       8.29251312
