    10
 Wannier centres, written by Wannier90 on30Sep2026 at 07:19:40 
X          1.80342880       1.80342879       1.80342879
X          1.80342879       0.89537495       0.89537496
X          0.89537496       1.80342879       0.89537497
X          0.89537496       0.89537496       1.80342879
X          0.22975281       0.22975277       0.22975281
X          0.22975284      -0.22975285      -0.22975286
X         -0.22975280       0.22975287      -0.22975282
X         -0.22975287      -0.22975284       0.22975284
si         1.34940188       1.34940188       1.34940188
si         0.00000000       0.00000000       0.00000000
