    10
 Wannier centres, written by Wannier90 on30Sep2026 at 07:12:20 
X         -0.00000000       2.82686465       2.82686465
X         -2.82686465       2.82686465       5.65372930
X         -5.65372929       2.82686465       2.82686465
X         -0.00000000       2.82686465       2.82686465
X         -2.42660138       3.22712792       3.22712792
X         -2.42660138       3.22712792       3.22712792
X         -2.42660138       3.22712792       3.22712792
X         -2.42660138       3.22712792       3.22712792
ga         0.00000000       0.00000000       0.00000000
as         1.41343232       1.41343232       1.41343232
