    20
 Wannier centres, written by Wannier90 on 1Oct2026 at 01:32:51 
X         -0.43748057       0.89799409      -9.02712389
X         -0.22753822       0.90821049      -7.89434156
X          0.46841187       0.44780363      -8.74227895
X          0.35293773       1.59760974      -8.79629724
X          1.76251943       2.73799348       9.02712388
X          1.97246178       2.74821099       7.89434156
X          2.66841205       2.28780370       8.74227842
X          2.55293756       3.43760970       8.79629779
X          0.34091059       0.52505805       8.75524283
X          0.56623792       0.86432616       9.30124375
X          1.07002724       0.92679840       8.87178922
X          0.34271822       1.38869128       8.88023741
X          2.54090786       2.36505642      -8.75524701
X          2.76623990       2.70432828      -9.30123806
X          3.27002836       2.76679756      -8.87178915
X          2.54271787       3.22869234      -8.88023892
ge         0.02957517       0.92000001      11.27613052
ge         2.22957518       2.76000002       8.72386953
s          0.58642483       0.92000001       8.92321597
s          2.78642483       2.76000002      11.07678408
