    14
 Wannier centres, written by Wannier90 on 9Apr2026 at 23:09:39 
X         -0.00000002       1.82699886      10.00040356
X          0.00000001       1.77781788      10.00040356
X         -0.00000000       1.87142434      10.00040356
X         -0.00000000       1.70770247      10.00040356
X          0.00000001       1.93768809      10.00040356
X          1.58001735       0.91503498      11.66983476
X          1.58001727       0.92297851      11.52430567
X          1.58001731       0.89889725      11.52434860
X          1.58001736       0.91503498       8.33097235
X          1.58001727       0.92297851       8.47650144
X          1.58001732       0.89889726       8.47645852
mo        -0.00000000       1.82444684      10.00040356
s          1.58001731       0.91222342      11.56546671
s          1.58001731       0.91222342       8.43534040
