    25
 Wannier centres, written by Wannier90 on10Apr2026 at 09:06:03 
X         -0.00000001       1.83934228       9.99999996
X         -0.00000001       1.83934230       9.99999996
X          0.00000000       1.78237055       9.99999994
X         -0.00000003       1.78237052       9.99999999
X          0.00000000       1.88997157       9.99999995
X         -0.00000000       1.88997155       9.99999996
X          0.00000001       1.68975060       9.99999994
X         -0.00000001       1.68975059       9.99999996
X         -0.00000000       1.97729272       9.99999996
X          0.00000000       1.97729272       9.99999995
X          1.59000010       0.92415145      11.67571756
X          1.59000010       0.92415148      11.67571752
X          1.58999992       0.94586726      11.50556129
X          1.58999989       0.94586728      11.50556126
X          1.59000000       0.88430964      11.50576860
X          1.59000001       0.88430954      11.50576857
X          1.59000010       0.92415147       8.32428237
X          1.59000005       0.92415147       8.32428239
X          1.58999989       0.94586726       8.49443861
X          1.58999993       0.94586727       8.49443864
X          1.59000001       0.88430959       8.49423132
X          1.58999999       0.88430958       8.49423134
w         -0.00000000       1.83597385       9.99999996
s          1.58999999       0.91798692      11.56499995
s          1.58999999       0.91798692       8.43499996
