    10
 Wannier centres, written by Wannier90 on28Sep2026 at 21:51:18 
X         -0.00001491       1.42116156      -0.00000000
X         -0.00000000       1.42028165      -0.00000000
X          0.00000840       1.49122630       0.00000000
X         -0.00000126       1.34806225       0.00000000
X          1.23001491       0.70926092       0.00000000
X          1.22999999       0.71014083       0.00000000
X          1.22999160       0.63919618      -0.00000000
X          1.23000126       0.78236024      -0.00000000
c         -0.00000000       1.42028166       0.00000000
c          1.22999999       0.71014083       0.00000000
