    14
 Wannier centres, written by Wannier90 on11Apr2026 at 15:27:49 
X         -0.00000003       2.05691039      10.00066212
X          0.00000004       1.97853456      10.00066217
X          0.00000000       2.13291713      10.00066221
X         -0.00000005       1.88433769      10.00066217
X         -0.00000004       2.22337395      10.00066221
X          1.78011766       1.03090201      11.87589937
X          1.78011778       1.07007939      11.65973015
X          1.78011773       0.98286205      11.65981428
X          1.78011790       1.03090190       8.12542467
X          1.78011769       1.07007942       8.34159437
X          1.78011773       0.98286206       8.34151025
w         -0.00000000       2.05550291      10.00066226
te         1.78011773       1.02775145      11.73677723
te         1.78011773       1.02775145       8.26454729
