    14
 Wannier centres, written by Wannier90 on11Apr2026 at 06:05:04 
X         -0.00000004       1.89803371       9.99919808
X          0.00000001       1.85300659       9.99919813
X          0.00000003       1.93660975       9.99919812
X         -0.00000003       1.73626569       9.99919810
X          0.00000000       2.04790212       9.99919808
X          1.64085261       0.95045606      11.74566772
X          1.64085257       0.97647104      11.61088739
X          1.64085257       0.91578580      11.61093161
X          1.64085262       0.95045615       8.25272848
X          1.64085253       0.97647104       8.38750881
X          1.64085259       0.91578580       8.38746461
w         -0.00000000       1.89469336       9.99919810
se         1.64085258       0.94734668      11.66906418
se         1.64085258       0.94734668       8.32933202
